WARNING: for repeatability, setting FPU to use double precision
============================[ Problem Statistics ]=============================
|                                                                             |
|  Number of variables:            50                                         |
|  Number of clauses:             218                                         |
|  Parse time:                   0.00 s                                       |
|                                                                             |
============================[ Search Statistics ]==============================
| Conflicts |          ORIGINAL         |          LEARNT          | Progress |
|           |    Vars  Clauses Literals |    Limit  Clauses Lit/Cl |          |
===============================================================================
===============================================================================
restarts              : 1
conflicts             : 12             (8696 /sec)
decisions             : 27             (0.00 % random) (19565 /sec)
propagations          : 180            (130435 /sec)
conflict literals     : 53             (7.02 % deleted)
Memory used           : 20.00 MB
CPU time              : 0.00138 s

SATISFIABLE
